WARNING: for repeatability, setting FPU to use double precision
============================[ Problem Statistics ]=============================
|                                                                             |
|  Number of variables:           100                                         |
|  Number of clauses:             449                                         |
|  Parse time:                   0.00 s                                       |
|  Eliminated clauses:           0.00 Mb                                      |
|  Simplification time:          0.00 s                                       |
|                                                                             |
============================[ Search Statistics ]==============================
| Conflicts |          ORIGINAL         |          LEARNT          | Progress |
|           |    Vars  Clauses Literals |    Limit  Clauses Lit/Cl |          |
===============================================================================
|       100 |      99      446     1344 |      163      100      7 |  0.010 % |
|       250 |      99      446     1344 |      179      164      6 |  0.041 % |
===============================================================================
restarts              : 4
conflicts             : 452            (107033 /sec)
decisions             : 549            (0.00 % random) (130002 /sec)
propagations          : 9991           (2365854 /sec)
conflict literals     : 2591           (22.17 % deleted)
Memory used           : 13.00 MB
CPU time              : 0.004223 s

SATISFIABLE
